TCS_Benchmarks/redos_fix/regexlib2_output_distinct_3379_3378_16_0.txt
(s\'|\'[A-Za-z]{1,2})?
(\,)?